SYSTEM=Au1Cu3-FCC
 1.0000000000000000
    4.7158193544950560    0.0000000000000000    0.0000000000000000
    0.0000000000000000    4.7158193544950560    0.0000000000000000
    0.0000000000000000    0.0000000000000000    4.7158193544950560
  Au  Cu
   1   3
Selective dynamics
Direct
 0.0000000000000000 0.0000000000000000 0.0000000000000000 F F F # 1a-Au-#1
 0.0000000000000000 0.5000000000000000 0.5000000000000000 F F F # 3c-Cu-#1
 0.5000000000000000 0.0000000000000000 0.5000000000000000 F F F # 3c-Cu-#2
 0.5000000000000000 0.5000000000000000 0.0000000000000000 F F F # 3c-Cu-#3
