SYSTEM=Al1Ni1-BCC
 1.0
    2.700    0.000    0.000
    0.000    2.700    0.000
    0.000    0.000    2.700
  Al  Ni
   1   1
Selective dynamics
Direct
 0.0 0.0 0.0 T T T # 1a-Al-#1
 0.5 0.5 0.5 T T T # 1b-Ni-#1
