SYSTEM=Sn2Ni6-HCP-D019                         
 1.0    
    2.6525 -4.593  0.000
    2.6525  4.593  0.000
    0.0000  0.000  4.242
  Sn  Ni
   2   6
Selective dynamics
Direct
 0.3333  0.6667  0.2500 T T T # 2a-Sn-#1
 0.6667  0.3333  0.7500 T T T # 2a-Sn-#2
 0.1596  0.8404  0.7500 T T T # 6c-Ni-#1
 0.1596  0.3192  0.7500 T T T # 6c-Ni-#2
 0.3192  0.1596  0.2500 T T T # 6c-Ni-#3
 0.6808  0.8404  0.7500 T T T # 6c-Ni-#4
 0.8404  0.6808  0.2500 T T T # 6c-Ni-#5
 0.8404  0.1596  0.7500 T T T # 6c-Ni-#6
