SYSTEM=Al1Ni1-BCC
 1.0000000000000000
    3.2401067830709418    0.0000000000000000    0.0000000000000000
    0.0000000000000000    3.2401067830709418    0.0000000000000000
    0.0000000000000000    0.0000000000000000    3.2401067830709418
  Al  Ni
   1   1
Selective dynamics
Direct
 0.0000000000000000 0.0000000000000000 0.0000000000000000 F F F # 1a-Al-#1
 0.5000000000000000 0.5000000000000000 0.5000000000000000 F F F # 1b-Ni-#1
