SYSTEM=Sn2Ni6-HCP-D019                         
 1.00000000000000     
    2.4936731042083125   -4.3191797296462031    0.0000000000000000
    2.4936731042083125    4.3191797296462031    0.0000000000000000
    0.0000000000000000    0.0000000000000000    3.9777525415457409
  Sn  Ni
   2   6
Selective dynamics
Direct
 0.3333333300000021 0.6666666699999979 0.2500000000000000 F F F # 2a-Sn-#1
 0.6666666699999979 0.3333333300000021 0.7500000000000000 F F F # 2a-Sn-#2
 0.8342059600225937 0.6684119299927218 0.2500000000000000 F F F # 6c-Ni-#1
 0.3315880400072757 0.1657940699774088 0.2500000000000000 F F F # 6c-Ni-#2
 0.8342059599701273 0.1657940700298752 0.2500000000000000 F F F # 6c-Ni-#3
 0.1657940699774088 0.3315880400072757 0.7500000000000000 F F F # 6c-Ni-#4
 0.6684119299927218 0.8342059600225937 0.7500000000000000 F F F # 6c-Ni-#5
 0.1657940400298727 0.8342059599701273 0.7500000000000000 F F F # 6c-Ni-#6
