SYSTEM=Au1Cu3-FCC
 1.0
    3.774    0.000    0.000
    0.000    3.774    0.000
    0.000    0.000    3.774
  Au  Cu
   1   3
Selective dynamics
Direct
 0.0 0.0 0.0 F F F # 1a-Au-#1
 0.0 0.5 0.5 T T T # 3c-Cu-#1
 0.5 0.0 0.5 T T T # 3c-Cu-#2
 0.5 0.5 0.0 T T T # 3c-Cu-#3
